NAME : rnd67_20.tsp
TYPE : TSP
DIMENSION : 20
EDGE_WEIGHT_TYPE : EUC_2D
NODE_COORD_SECTION
0 196 110
1 607 958
2 840 416
3 273 200
4 85 889
5 961 320
6 554 550
7 558 662
8 269 336
9 267 218
10 745 254
11 328 880
12 544 0
13 479 590
14 755 119
15 680 187
16 328 189
17 229 897
18 415 62
19 181 121
